Instances/queen7_7.col.dat
data;
set V := 1 2 3 4 5 6 7 8 9 10 11 12 13 14 15 16 17 18 19 20 21 22 23 24 25 26 27 28 29 30 31 32 33 34 35 36 37 38 39 40 41 42 43 44 45 46 47 48 49;
set E :=
	(1,9)
	(9,1)
	(1,17)
	(17,1)
	(1,25)
	(25,1)
	(1,33)
	(33,1)
	(1,41)
	(41,1)
	(1,49)
	(49,1)
	(1,2)
	(2,1)
	(1,3)
	(3,1)
	(1,4)
	(4,1)
	(1,5)
	(5,1)
	(1,6)
	(6,1)
	(1,7)
	(7,1)
	(1,8)
	(8,1)
	(1,15)
	(15,1)
	(1,22)
	(22,1)
	(1,29)
	(29,1)
	(1,36)
	(36,1)
	(1,43)
	(43,1)
	(2,10)
	(10,2)
	(2,18)
	(18,2)
	(2,26)
	(26,2)
	(2,34)
	(34,2)
	(2,42)
	(42,2)
	(2,8)
	(8,2)
	(2,3)
	(3,2)
	(2,4)
	(4,2)
	(2,5)
	(5,2)
	(2,6)
	(6,2)
	(2,7)
	(7,2)
	(2,9)
	(9,2)
	(2,16)
	(16,2)
	(2,23)
	(23,2)
	(2,30)
	(30,2)
	(2,37)
	(37,2)
	(2,44)
	(44,2)
	(2,1)
	(1,2)
	(3,11)
	(11,3)
	(3,19)
	(19,3)
	(3,27)
	(27,3)
	(3,35)
	(35,3)
	(3,9)
	(9,3)
	(3,15)
	(15,3)
	(3,4)
	(4,3)
	(3,5)
	(5,3)
	(3,6)
	(6,3)
	(3,7)
	(7,3)
	(3,10)
	(10,3)
	(3,17)
	(17,3)
	(3,24)
	(24,3)
	(3,31)
	(31,3)
	(3,38)
	(38,3)
	(3,45)
	(45,3)
	(3,2)
	(2,3)
	(3,1)
	(1,3)
	(4,12)
	(12,4)
	(4,20)
	(20,4)
	(4,28)
	(28,4)
	(4,10)
	(10,4)
	(4,16)
	(16,4)
	(4,22)
	(22,4)
	(4,5)
	(5,4)
	(4,6)
	(6,4)
	(4,7)
	(7,4)
	(4,11)
	(11,4)
	(4,18)
	(18,4)
	(4,25)
	(25,4)
	(4,32)
	(32,4)
	(4,39)
	(39,4)
	(4,46)
	(46,4)
	(4,3)
	(3,4)
	(4,2)
	(2,4)
	(4,1)
	(1,4)
	(5,13)
	(13,5)
	(5,21)
	(21,5)
	(5,11)
	(11,5)
	(5,17)
	(17,5)
	(5,23)
	(23,5)
	(5,29)
	(29,5)
	(5,6)
	(6,5)
	(5,7)
	(7,5)
	(5,12)
	(12,5)
	(5,19)
	(19,5)
	(5,26)
	(26,5)
	(5,33)
	(33,5)
	(5,40)
	(40,5)
	(5,47)
	(47,5)
	(5,4)
	(4,5)
	(5,3)
	(3,5)
	(5,2)
	(2,5)
	(5,1)
	(1,5)
	(6,14)
	(14,6)
	(6,12)
	(12,6)
	(6,18)
	(18,6)
	(6,24)
	(24,6)
	(6,30)
	(30,6)
	(6,36)
	(36,6)
	(6,7)
	(7,6)
	(6,13)
	(13,6)
	(6,20)
	(20,6)
	(6,27)
	(27,6)
	(6,34)
	(34,6)
	(6,41)
	(41,6)
	(6,48)
	(48,6)
	(6,5)
	(5,6)
	(6,4)
	(4,6)
	(6,3)
	(3,6)
	(6,2)
	(2,6)
	(6,1)
	(1,6)
	(7,13)
	(13,7)
	(7,19)
	(19,7)
	(7,25)
	(25,7)
	(7,31)
	(31,7)
	(7,37)
	(37,7)
	(7,43)
	(43,7)
	(7,14)
	(14,7)
	(7,21)
	(21,7)
	(7,28)
	(28,7)
	(7,35)
	(35,7)
	(7,42)
	(42,7)
	(7,49)
	(49,7)
	(7,6)
	(6,7)
	(7,5)
	(5,7)
	(7,4)
	(4,7)
	(7,3)
	(3,7)
	(7,2)
	(2,7)
	(7,1)
	(1,7)
	(8,16)
	(16,8)
	(8,24)
	(24,8)
	(8,32)
	(32,8)
	(8,40)
	(40,8)
	(8,48)
	(48,8)
	(8,9)
	(9,8)
	(8,10)
	(10,8)
	(8,11)
	(11,8)
	(8,12)
	(12,8)
	(8,13)
	(13,8)
	(8,14)
	(14,8)
	(8,15)
	(15,8)
	(8,22)
	(22,8)
	(8,29)
	(29,8)
	(8,36)
	(36,8)
	(8,43)
	(43,8)
	(8,2)
	(2,8)
	(8,1)
	(1,8)
	(9,17)
	(17,9)
	(9,25)
	(25,9)
	(9,33)
	(33,9)
	(9,41)
	(41,9)
	(9,49)
	(49,9)
	(9,15)
	(15,9)
	(9,10)
	(10,9)
	(9,11)
	(11,9)
	(9,12)
	(12,9)
	(9,13)
	(13,9)
	(9,14)
	(14,9)
	(9,16)
	(16,9)
	(9,23)
	(23,9)
	(9,30)
	(30,9)
	(9,37)
	(37,9)
	(9,44)
	(44,9)
	(9,8)
	(8,9)
	(9,3)
	(3,9)
	(9,2)
	(2,9)
	(9,1)
	(1,9)
	(10,18)
	(18,10)
	(10,26)
	(26,10)
	(10,34)
	(34,10)
	(10,42)
	(42,10)
	(10,16)
	(16,10)
	(10,22)
	(22,10)
	(10,11)
	(11,10)
	(10,12)
	(12,10)
	(10,13)
	(13,10)
	(10,14)
	(14,10)
	(10,17)
	(17,10)
	(10,24)
	(24,10)
	(10,31)
	(31,10)
	(10,38)
	(38,10)
	(10,45)
	(45,10)
	(10,9)
	(9,10)
	(10,8)
	(8,10)
	(10,4)
	(4,10)
	(10,3)
	(3,10)
	(10,2)
	(2,10)
	(11,19)
	(19,11)
	(11,27)
	(27,11)
	(11,35)
	(35,11)
	(11,17)
	(17,11)
	(11,23)
	(23,11)
	(11,29)
	(29,11)
	(11,12)
	(12,11)
	(11,13)
	(13,11)
	(11,14)
	(14,11)
	(11,18)
	(18,11)
	(11,25)
	(25,11)
	(11,32)
	(32,11)
	(11,39)
	(39,11)
	(11,46)
	(46,11)
	(11,10)
	(10,11)
	(11,9)
	(9,11)
	(11,8)
	(8,11)
	(11,5)
	(5,11)
	(11,4)
	(4,11)
	(11,3)
	(3,11)
	(12,20)
	(20,12)
	(12,28)
	(28,12)
	(12,18)
	(18,12)
	(12,24)
	(24,12)
	(12,30)
	(30,12)
	(12,36)
	(36,12)
	(12,13)
	(13,12)
	(12,14)
	(14,12)
	(12,19)
	(19,12)
	(12,26)
	(26,12)
	(12,33)
	(33,12)
	(12,40)
	(40,12)
	(12,47)
	(47,12)
	(12,11)
	(11,12)
	(12,10)
	(10,12)
	(12,9)
	(9,12)
	(12,8)
	(8,12)
	(12,6)
	(6,12)
	(12,5)
	(5,12)
	(12,4)
	(4,12)
	(13,21)
	(21,13)
	(13,19)
	(19,13)
	(13,25)
	(25,13)
	(13,31)
	(31,13)
	(13,37)
	(37,13)
	(13,43)
	(43,13)
	(13,14)
	(14,13)
	(13,20)
	(20,13)
	(13,27)
	(27,13)
	(13,34)
	(34,13)
	(13,41)
	(41,13)
	(13,48)
	(48,13)
	(13,12)
	(12,13)
	(13,11)
	(11,13)
	(13,10)
	(10,13)
	(13,9)
	(9,13)
	(13,8)
	(8,13)
	(13,7)
	(7,13)
	(13,6)
	(6,13)
	(13,5)
	(5,13)
	(14,20)
	(20,14)
	(14,26)
	(26,14)
	(14,32)
	(32,14)
	(14,38)
	(38,14)
	(14,44)
	(44,14)
	(14,21)
	(21,14)
	(14,28)
	(28,14)
	(14,35)
	(35,14)
	(14,42)
	(42,14)
	(14,49)
	(49,14)
	(14,13)
	(13,14)
	(14,12)
	(12,14)
	(14,11)
	(11,14)
	(14,10)
	(10,14)
	(14,9)
	(9,14)
	(14,8)
	(8,14)
	(14,7)
	(7,14)
	(14,6)
	(6,14)
	(15,23)
	(23,15)
	(15,31)
	(31,15)
	(15,39)
	(39,15)
	(15,47)
	(47,15)
	(15,16)
	(16,15)
	(15,17)
	(17,15)
	(15,18)
	(18,15)
	(15,19)
	(19,15)
	(15,20)
	(20,15)
	(15,21)
	(21,15)
	(15,22)
	(22,15)
	(15,29)
	(29,15)
	(15,36)
	(36,15)
	(15,43)
	(43,15)
	(15,9)
	(9,15)
	(15,8)
	(8,15)
	(15,3)
	(3,15)
	(15,1)
	(1,15)
	(16,24)
	(24,16)
	(16,32)
	(32,16)
	(16,40)
	(40,16)
	(16,48)
	(48,16)
	(16,22)
	(22,16)
	(16,17)
	(17,16)
	(16,18)
	(18,16)
	(16,19)
	(19,16)
	(16,20)
	(20,16)
	(16,21)
	(21,16)
	(16,23)
	(23,16)
	(16,30)
	(30,16)
	(16,37)
	(37,16)
	(16,44)
	(44,16)
	(16,15)
	(15,16)
	(16,10)
	(10,16)
	(16,9)
	(9,16)
	(16,8)
	(8,16)
	(16,4)
	(4,16)
	(16,2)
	(2,16)
	(17,25)
	(25,17)
	(17,33)
	(33,17)
	(17,41)
	(41,17)
	(17,49)
	(49,17)
	(17,23)
	(23,17)
	(17,29)
	(29,17)
	(17,18)
	(18,17)
	(17,19)
	(19,17)
	(17,20)
	(20,17)
	(17,21)
	(21,17)
	(17,24)
	(24,17)
	(17,31)
	(31,17)
	(17,38)
	(38,17)
	(17,45)
	(45,17)
	(17,16)
	(16,17)
	(17,15)
	(15,17)
	(17,11)
	(11,17)
	(17,10)
	(10,17)
	(17,9)
	(9,17)
	(17,5)
	(5,17)
	(17,3)
	(3,17)
	(17,1)
	(1,17)
	(18,26)
	(26,18)
	(18,34)
	(34,18)
	(18,42)
	(42,18)
	(18,24)
	(24,18)
	(18,30)
	(30,18)
	(18,36)
	(36,18)
	(18,19)
	(19,18)
	(18,20)
	(20,18)
	(18,21)
	(21,18)
	(18,25)
	(25,18)
	(18,32)
	(32,18)
	(18,39)
	(39,18)
	(18,46)
	(46,18)
	(18,17)
	(17,18)
	(18,16)
	(16,18)
	(18,15)
	(15,18)
	(18,12)
	(12,18)
	(18,11)
	(11,18)
	(18,10)
	(10,18)
	(18,6)
	(6,18)
	(18,4)
	(4,18)
	(18,2)
	(2,18)
	(19,27)
	(27,19)
	(19,35)
	(35,19)
	(19,25)
	(25,19)
	(19,31)
	(31,19)
	(19,37)
	(37,19)
	(19,43)
	(43,19)
	(19,20)
	(20,19)
	(19,21)
	(21,19)
	(19,26)
	(26,19)
	(19,33)
	(33,19)
	(19,40)
	(40,19)
	(19,47)
	(47,19)
	(19,18)
	(18,19)
	(19,17)
	(17,19)
	(19,16)
	(16,19)
	(19,15)
	(15,19)
	(19,13)
	(13,19)
	(19,12)
	(12,19)
	(19,11)
	(11,19)
	(19,7)
	(7,19)
	(19,5)
	(5,19)
	(19,3)
	(3,19)
	(20,28)
	(28,20)
	(20,26)
	(26,20)
	(20,32)
	(32,20)
	(20,38)
	(38,20)
	(20,44)
	(44,20)
	(20,21)
	(21,20)
	(20,27)
	(27,20)
	(20,34)
	(34,20)
	(20,41)
	(41,20)
	(20,48)
	(48,20)
	(20,19)
	(19,20)
	(20,18)
	(18,20)
	(20,17)
	(17,20)
	(20,16)
	(16,20)
	(20,15)
	(15,20)
	(20,14)
	(14,20)
	(20,13)
	(13,20)
	(20,12)
	(12,20)
	(20,6)
	(6,20)
	(20,4)
	(4,20)
	(21,27)
	(27,21)
	(21,33)
	(33,21)
	(21,39)
	(39,21)
	(21,45)
	(45,21)
	(21,28)
	(28,21)
	(21,35)
	(35,21)
	(21,42)
	(42,21)
	(21,49)
	(49,21)
	(21,20)
	(20,21)
	(21,19)
	(19,21)
	(21,18)
	(18,21)
	(21,17)
	(17,21)
	(21,16)
	(16,21)
	(21,15)
	(15,21)
	(21,14)
	(14,21)
	(21,13)
	(13,21)
	(21,7)
	(7,21)
	(21,5)
	(5,21)
	(22,30)
	(30,22)
	(22,38)
	(38,22)
	(22,46)
	(46,22)
	(22,23)
	(23,22)
	(22,24)
	(24,22)
	(22,25)
	(25,22)
	(22,26)
	(26,22)
	(22,27)
	(27,22)
	(22,28)
	(28,22)
	(22,29)
	(29,22)
	(22,36)
	(36,22)
	(22,43)
	(43,22)
	(22,16)
	(16,22)
	(22,15)
	(15,22)
	(22,10)
	(10,22)
	(22,8)
	(8,22)
	(22,4)
	(4,22)
	(22,1)
	(1,22)
	(23,31)
	(31,23)
	(23,39)
	(39,23)
	(23,47)
	(47,23)
	(23,29)
	(29,23)
	(23,24)
	(24,23)
	(23,25)
	(25,23)
	(23,26)
	(26,23)
	(23,27)
	(27,23)
	(23,28)
	(28,23)
	(23,30)
	(30,23)
	(23,37)
	(37,23)
	(23,44)
	(44,23)
	(23,22)
	(22,23)
	(23,17)
	(17,23)
	(23,16)
	(16,23)
	(23,15)
	(15,23)
	(23,11)
	(11,23)
	(23,9)
	(9,23)
	(23,5)
	(5,23)
	(23,2)
	(2,23)
	(24,32)
	(32,24)
	(24,40)
	(40,24)
	(24,48)
	(48,24)
	(24,30)
	(30,24)
	(24,36)
	(36,24)
	(24,25)
	(25,24)
	(24,26)
	(26,24)
	(24,27)
	(27,24)
	(24,28)
	(28,24)
	(24,31)
	(31,24)
	(24,38)
	(38,24)
	(24,45)
	(45,24)
	(24,23)
	(23,24)
	(24,22)
	(22,24)
	(24,18)
	(18,24)
	(24,17)
	(17,24)
	(24,16)
	(16,24)
	(24,12)
	(12,24)
	(24,10)
	(10,24)
	(24,8)
	(8,24)
	(24,6)
	(6,24)
	(24,3)
	(3,24)
	(25,33)
	(33,25)
	(25,41)
	(41,25)
	(25,49)
	(49,25)
	(25,31)
	(31,25)
	(25,37)
	(37,25)
	(25,43)
	(43,25)
	(25,26)
	(26,25)
	(25,27)
	(27,25)
	(25,28)
	(28,25)
	(25,32)
	(32,25)
	(25,39)
	(39,25)
	(25,46)
	(46,25)
	(25,24)
	(24,25)
	(25,23)
	(23,25)
	(25,22)
	(22,25)
	(25,19)
	(19,25)
	(25,18)
	(18,25)
	(25,17)
	(17,25)
	(25,13)
	(13,25)
	(25,11)
	(11,25)
	(25,9)
	(9,25)
	(25,7)
	(7,25)
	(25,4)
	(4,25)
	(25,1)
	(1,25)
	(26,34)
	(34,26)
	(26,42)
	(42,26)
	(26,32)
	(32,26)
	(26,38)
	(38,26)
	(26,44)
	(44,26)
	(26,27)
	(27,26)
	(26,28)
	(28,26)
	(26,33)
	(33,26)
	(26,40)
	(40,26)
	(26,47)
	(47,26)
	(26,25)
	(25,26)
	(26,24)
	(24,26)
	(26,23)
	(23,26)
	(26,22)
	(22,26)
	(26,20)
	(20,26)
	(26,19)
	(19,26)
	(26,18)
	(18,26)
	(26,14)
	(14,26)
	(26,12)
	(12,26)
	(26,10)
	(10,26)
	(26,5)
	(5,26)
	(26,2)
	(2,26)
	(27,35)
	(35,27)
	(27,33)
	(33,27)
	(27,39)
	(39,27)
	(27,45)
	(45,27)
	(27,28)
	(28,27)
	(27,34)
	(34,27)
	(27,41)
	(41,27)
	(27,48)
	(48,27)
	(27,26)
	(26,27)
	(27,25)
	(25,27)
	(27,24)
	(24,27)
	(27,23)
	(23,27)
	(27,22)
	(22,27)
	(27,21)
	(21,27)
	(27,20)
	(20,27)
	(27,19)
	(19,27)
	(27,13)
	(13,27)
	(27,11)
	(11,27)
	(27,6)
	(6,27)
	(27,3)
	(3,27)
	(28,34)
	(34,28)
	(28,40)
	(40,28)
	(28,46)
	(46,28)
	(28,35)
	(35,28)
	(28,42)
	(42,28)
	(28,49)
	(49,28)
	(28,27)
	(27,28)
	(28,26)
	(26,28)
	(28,25)
	(25,28)
	(28,24)
	(24,28)
	(28,23)
	(23,28)
	(28,22)
	(22,28)
	(28,21)
	(21,28)
	(28,20)
	(20,28)
	(28,14)
	(14,28)
	(28,12)
	(12,28)
	(28,7)
	(7,28)
	(28,4)
	(4,28)
	(29,37)
	(37,29)
	(29,45)
	(45,29)
	(29,30)
	(30,29)
	(29,31)
	(31,29)
	(29,32)
	(32,29)
	(29,33)
	(33,29)
	(29,34)
	(34,29)
	(29,35)
	(35,29)
	(29,36)
	(36,29)
	(29,43)
	(43,29)
	(29,23)
	(23,29)
	(29,22)
	(22,29)
	(29,17)
	(17,29)
	(29,15)
	(15,29)
	(29,11)
	(11,29)
	(29,8)
	(8,29)
	(29,5)
	(5,29)
	(29,1)
	(1,29)
	(30,38)
	(38,30)
	(30,46)
	(46,30)
	(30,36)
	(36,30)
	(30,31)
	(31,30)
	(30,32)
	(32,30)
	(30,33)
	(33,30)
	(30,34)
	(34,30)
	(30,35)
	(35,30)
	(30,37)
	(37,30)
	(30,44)
	(44,30)
	(30,29)
	(29,30)
	(30,24)
	(24,30)
	(30,23)
	(23,30)
	(30,22)
	(22,30)
	(30,18)
	(18,30)
	(30,16)
	(16,30)
	(30,12)
	(12,30)
	(30,9)
	(9,30)
	(30,6)
	(6,30)
	(30,2)
	(2,30)
	(31,39)
	(39,31)
	(31,47)
	(47,31)
	(31,37)
	(37,31)
	(31,43)
	(43,31)
	(31,32)
	(32,31)
	(31,33)
	(33,31)
	(31,34)
	(34,31)
	(31,35)
	(35,31)
	(31,38)
	(38,31)
	(31,45)
	(45,31)
	(31,30)
	(30,31)
	(31,29)
	(29,31)
	(31,25)
	(25,31)
	(31,24)
	(24,31)
	(31,23)
	(23,31)
	(31,19)
	(19,31)
	(31,17)
	(17,31)
	(31,15)
	(15,31)
	(31,13)
	(13,31)
	(31,10)
	(10,31)
	(31,7)
	(7,31)
	(31,3)
	(3,31)
	(32,40)
	(40,32)
	(32,48)
	(48,32)
	(32,38)
	(38,32)
	(32,44)
	(44,32)
	(32,33)
	(33,32)
	(32,34)
	(34,32)
	(32,35)
	(35,32)
	(32,39)
	(39,32)
	(32,46)
	(46,32)
	(32,31)
	(31,32)
	(32,30)
	(30,32)
	(32,29)
	(29,32)
	(32,26)
	(26,32)
	(32,25)
	(25,32)
	(32,24)
	(24,32)
	(32,20)
	(20,32)
	(32,18)
	(18,32)
	(32,16)
	(16,32)
	(32,14)
	(14,32)
	(32,11)
	(11,32)
	(32,8)
	(8,32)
	(32,4)
	(4,32)
	(33,41)
	(41,33)
	(33,49)
	(49,33)
	(33,39)
	(39,33)
	(33,45)
	(45,33)
	(33,34)
	(34,33)
	(33,35)
	(35,33)
	(33,40)
	(40,33)
	(33,47)
	(47,33)
	(33,32)
	(32,33)
	(33,31)
	(31,33)
	(33,30)
	(30,33)
	(33,29)
	(29,33)
	(33,27)
	(27,33)
	(33,26)
	(26,33)
	(33,25)
	(25,33)
	(33,21)
	(21,33)
	(33,19)
	(19,33)
	(33,17)
	(17,33)
	(33,12)
	(12,33)
	(33,9)
	(9,33)
	(33,5)
	(5,33)
	(33,1)
	(1,33)
	(34,42)
	(42,34)
	(34,40)
	(40,34)
	(34,46)
	(46,34)
	(34,35)
	(35,34)
	(34,41)
	(41,34)
	(34,48)
	(48,34)
	(34,33)
	(33,34)
	(34,32)
	(32,34)
	(34,31)
	(31,34)
	(34,30)
	(30,34)
	(34,29)
	(29,34)
	(34,28)
	(28,34)
	(34,27)
	(27,34)
	(34,26)
	(26,34)
	(34,20)
	(20,34)
	(34,18)
	(18,34)
	(34,13)
	(13,34)
	(34,10)
	(10,34)
	(34,6)
	(6,34)
	(34,2)
	(2,34)
	(35,41)
	(41,35)
	(35,47)
	(47,35)
	(35,42)
	(42,35)
	(35,49)
	(49,35)
	(35,34)
	(34,35)
	(35,33)
	(33,35)
	(35,32)
	(32,35)
	(35,31)
	(31,35)
	(35,30)
	(30,35)
	(35,29)
	(29,35)
	(35,28)
	(28,35)
	(35,27)
	(27,35)
	(35,21)
	(21,35)
	(35,19)
	(19,35)
	(35,14)
	(14,35)
	(35,11)
	(11,35)
	(35,7)
	(7,35)
	(35,3)
	(3,35)
	(36,44)
	(44,36)
	(36,37)
	(37,36)
	(36,38)
	(38,36)
	(36,39)
	(39,36)
	(36,40)
	(40,36)
	(36,41)
	(41,36)
	(36,42)
	(42,36)
	(36,43)
	(43,36)
	(36,30)
	(30,36)
	(36,29)
	(29,36)
	(36,24)
	(24,36)
	(36,22)
	(22,36)
	(36,18)
	(18,36)
	(36,15)
	(15,36)
	(36,12)
	(12,36)
	(36,8)
	(8,36)
	(36,6)
	(6,36)
	(36,1)
	(1,36)
	(37,45)
	(45,37)
	(37,43)
	(43,37)
	(37,38)
	(38,37)
	(37,39)
	(39,37)
	(37,40)
	(40,37)
	(37,41)
	(41,37)
	(37,42)
	(42,37)
	(37,44)
	(44,37)
	(37,36)
	(36,37)
	(37,31)
	(31,37)
	(37,30)
	(30,37)
	(37,29)
	(29,37)
	(37,25)
	(25,37)
	(37,23)
	(23,37)
	(37,19)
	(19,37)
	(37,16)
	(16,37)
	(37,13)
	(13,37)
	(37,9)
	(9,37)
	(37,7)
	(7,37)
	(37,2)
	(2,37)
	(38,46)
	(46,38)
	(38,44)
	(44,38)
	(38,39)
	(39,38)
	(38,40)
	(40,38)
	(38,41)
	(41,38)
	(38,42)
	(42,38)
	(38,45)
	(45,38)
	(38,37)
	(37,38)
	(38,36)
	(36,38)
	(38,32)
	(32,38)
	(38,31)
	(31,38)
	(38,30)
	(30,38)
	(38,26)
	(26,38)
	(38,24)
	(24,38)
	(38,22)
	(22,38)
	(38,20)
	(20,38)
	(38,17)
	(17,38)
	(38,14)
	(14,38)
	(38,10)
	(10,38)
	(38,3)
	(3,38)
	(39,47)
	(47,39)
	(39,45)
	(45,39)
	(39,40)
	(40,39)
	(39,41)
	(41,39)
	(39,42)
	(42,39)
	(39,46)
	(46,39)
	(39,38)
	(38,39)
	(39,37)
	(37,39)
	(39,36)
	(36,39)
	(39,33)
	(33,39)
	(39,32)
	(32,39)
	(39,31)
	(31,39)
	(39,27)
	(27,39)
	(39,25)
	(25,39)
	(39,23)
	(23,39)
	(39,21)
	(21,39)
	(39,18)
	(18,39)
	(39,15)
	(15,39)
	(39,11)
	(11,39)
	(39,4)
	(4,39)
	(40,48)
	(48,40)
	(40,46)
	(46,40)
	(40,41)
	(41,40)
	(40,42)
	(42,40)
	(40,47)
	(47,40)
	(40,39)
	(39,40)
	(40,38)
	(38,40)
	(40,37)
	(37,40)
	(40,36)
	(36,40)
	(40,34)
	(34,40)
	(40,33)
	(33,40)
	(40,32)
	(32,40)
	(40,28)
	(28,40)
	(40,26)
	(26,40)
	(40,24)
	(24,40)
	(40,19)
	(19,40)
	(40,16)
	(16,40)
	(40,12)
	(12,40)
	(40,8)
	(8,40)
	(40,5)
	(5,40)
	(41,49)
	(49,41)
	(41,47)
	(47,41)
	(41,42)
	(42,41)
	(41,48)
	(48,41)
	(41,40)
	(40,41)
	(41,39)
	(39,41)
	(41,38)
	(38,41)
	(41,37)
	(37,41)
	(41,36)
	(36,41)
	(41,35)
	(35,41)
	(41,34)
	(34,41)
	(41,33)
	(33,41)
	(41,27)
	(27,41)
	(41,25)
	(25,41)
	(41,20)
	(20,41)
	(41,17)
	(17,41)
	(41,13)
	(13,41)
	(41,9)
	(9,41)
	(41,6)
	(6,41)
	(41,1)
	(1,41)
	(42,48)
	(48,42)
	(42,49)
	(49,42)
	(42,41)
	(41,42)
	(42,40)
	(40,42)
	(42,39)
	(39,42)
	(42,38)
	(38,42)
	(42,37)
	(37,42)
	(42,36)
	(36,42)
	(42,35)
	(35,42)
	(42,34)
	(34,42)
	(42,28)
	(28,42)
	(42,26)
	(26,42)
	(42,21)
	(21,42)
	(42,18)
	(18,42)
	(42,14)
	(14,42)
	(42,10)
	(10,42)
	(42,7)
	(7,42)
	(42,2)
	(2,42)
	(43,44)
	(44,43)
	(43,45)
	(45,43)
	(43,46)
	(46,43)
	(43,47)
	(47,43)
	(43,48)
	(48,43)
	(43,49)
	(49,43)
	(43,37)
	(37,43)
	(43,36)
	(36,43)
	(43,31)
	(31,43)
	(43,29)
	(29,43)
	(43,25)
	(25,43)
	(43,22)
	(22,43)
	(43,19)
	(19,43)
	(43,15)
	(15,43)
	(43,13)
	(13,43)
	(43,8)
	(8,43)
	(43,7)
	(7,43)
	(43,1)
	(1,43)
	(44,45)
	(45,44)
	(44,46)
	(46,44)
	(44,47)
	(47,44)
	(44,48)
	(48,44)
	(44,49)
	(49,44)
	(44,43)
	(43,44)
	(44,38)
	(38,44)
	(44,37)
	(37,44)
	(44,36)
	(36,44)
	(44,32)
	(32,44)
	(44,30)
	(30,44)
	(44,26)
	(26,44)
	(44,23)
	(23,44)
	(44,20)
	(20,44)
	(44,16)
	(16,44)
	(44,14)
	(14,44)
	(44,9)
	(9,44)
	(44,2)
	(2,44)
	(45,46)
	(46,45)
	(45,47)
	(47,45)
	(45,48)
	(48,45)
	(45,49)
	(49,45)
	(45,44)
	(44,45)
	(45,43)
	(43,45)
	(45,39)
	(39,45)
	(45,38)
	(38,45)
	(45,37)
	(37,45)
	(45,33)
	(33,45)
	(45,31)
	(31,45)
	(45,29)
	(29,45)
	(45,27)
	(27,45)
	(45,24)
	(24,45)
	(45,21)
	(21,45)
	(45,17)
	(17,45)
	(45,10)
	(10,45)
	(45,3)
	(3,45)
	(46,47)
	(47,46)
	(46,48)
	(48,46)
	(46,49)
	(49,46)
	(46,45)
	(45,46)
	(46,44)
	(44,46)
	(46,43)
	(43,46)
	(46,40)
	(40,46)
	(46,39)
	(39,46)
	(46,38)
	(38,46)
	(46,34)
	(34,46)
	(46,32)
	(32,46)
	(46,30)
	(30,46)
	(46,28)
	(28,46)
	(46,25)
	(25,46)
	(46,22)
	(22,46)
	(46,18)
	(18,46)
	(46,11)
	(11,46)
	(46,4)
	(4,46)
	(47,48)
	(48,47)
	(47,49)
	(49,47)
	(47,46)
	(46,47)
	(47,45)
	(45,47)
	(47,44)
	(44,47)
	(47,43)
	(43,47)
	(47,41)
	(41,47)
	(47,40)
	(40,47)
	(47,39)
	(39,47)
	(47,35)
	(35,47)
	(47,33)
	(33,47)
	(47,31)
	(31,47)
	(47,26)
	(26,47)
	(47,23)
	(23,47)
	(47,19)
	(19,47)
	(47,15)
	(15,47)
	(47,12)
	(12,47)
	(47,5)
	(5,47)
	(48,49)
	(49,48)
	(48,47)
	(47,48)
	(48,46)
	(46,48)
	(48,45)
	(45,48)
	(48,44)
	(44,48)
	(48,43)
	(43,48)
	(48,42)
	(42,48)
	(48,41)
	(41,48)
	(48,40)
	(40,48)
	(48,34)
	(34,48)
	(48,32)
	(32,48)
	(48,27)
	(27,48)
	(48,24)
	(24,48)
	(48,20)
	(20,48)
	(48,16)
	(16,48)
	(48,13)
	(13,48)
	(48,8)
	(8,48)
	(48,6)
	(6,48)
	(49,48)
	(48,49)
	(49,47)
	(47,49)
	(49,46)
	(46,49)
	(49,45)
	(45,49)
	(49,44)
	(44,49)
	(49,43)
	(43,49)
	(49,42)
	(42,49)
	(49,41)
	(41,49)
	(49,35)
	(35,49)
	(49,33)
	(33,49)
	(49,28)
	(28,49)
	(49,25)
	(25,49)
	(49,21)
	(21,49)
	(49,17)
	(17,49)
	(49,14)
	(14,49)
	(49,9)
	(9,49)
	(49,7)
	(7,49)
	(49,1)
	(1,49);
end;
